\* problem *\
Maximize
OBJ: 39 A1 + 36 A2 + 34 A3 + 32 A4 + 32 B1 + 36 B2 + 37 B3 + 29 B4
Subject To
_C1: A1 + A2 + A3 + A4 <= 3500
_C2: B1 + B2 + B3 + B4 <= 3100
_C3: A1 + B1 <= 1800
_C4: A2 + B2 <= 2300
_C5: A3 + B3 <= 1250
_C6: A4 + B4 <= 1750
End
